Instance: Data/Instances_txt/inst_200_50_4.txt
SetUpTime: 8099.310853004456

Gurobi 10.0.1 (mac64[x86]) logging started Fr 21 Jul 17:44:13 2023

Set parameter LogFile to value "Output/MILP_inst_200_50_4_2023-07-21_15-29-12.txt"
Set parameter TimeLimit to value 2700

Gurobi 10.0.1 (mac64[x86]) logging started Fr 21 Jul 17:44:14 2023

Set parameter LogFile to value "Output/MILP_inst_200_50_4_2023-07-21_15-29-12.txt"
Gurobi Optimizer version 10.0.1 build v10.0.1rc0 (mac64[x86])

CPU model: Intel(R) Core(TM) i5-1038NG7 CPU @ 2.00GHz
Thread count: 4 physical cores, 8 logical processors, using up to 8 threads

Optimize a model with 401 rows, 1570519 columns and 25987443 nonzeros
Model fingerprint: 0x0b04065a
Variable types: 0 continuous, 1570519 integer (0 binary)
Coefficient statistics:
  Matrix range     [1e+00, 1e+00]
  Objective range  [2e+00, 2e+04]
  Bounds range     [1e+00, 1e+00]
  RHS range        [1e+00, 1e+00]
Presolve removed 0 rows and 0 columns (presolve time = 5s) ...
Presolve removed 0 rows and 0 columns (presolve time = 10s) ...
Presolve removed 0 rows and 0 columns (presolve time = 15s) ...
Presolve removed 0 rows and 0 columns (presolve time = 20s) ...
Presolve removed 0 rows and 0 columns (presolve time = 25s) ...
Presolve removed 0 rows and 0 columns (presolve time = 30s) ...
Presolve removed 0 rows and 0 columns (presolve time = 35s) ...
Presolve removed 0 rows and 0 columns (presolve time = 40s) ...
Presolve removed 0 rows and 0 columns (presolve time = 45s) ...
Presolve removed 0 rows and 0 columns (presolve time = 51s) ...
Presolve removed 0 rows and 0 columns (presolve time = 55s) ...
Presolve removed 0 rows and 0 columns (presolve time = 60s) ...
Presolve removed 0 rows and 0 columns (presolve time = 65s) ...
Presolve removed 0 rows and 0 columns (presolve time = 70s) ...
Presolve removed 0 rows and 0 columns (presolve time = 75s) ...
Presolve removed 0 rows and 0 columns (presolve time = 80s) ...
Presolve removed 0 rows and 0 columns (presolve time = 85s) ...
Presolve removed 0 rows and 0 columns (presolve time = 90s) ...
Presolve removed 0 rows and 0 columns (presolve time = 95s) ...
Presolve removed 0 rows and 0 columns (presolve time = 100s) ...
Presolve removed 0 rows and 216 columns (presolve time = 105s) ...
Presolve removed 0 rows and 216 columns (presolve time = 110s) ...
Presolve removed 0 rows and 216 columns (presolve time = 115s) ...
Presolve removed 0 rows and 216 columns (presolve time = 120s) ...
Presolve removed 0 rows and 216 columns (presolve time = 125s) ...
Presolve removed 0 rows and 216 columns
Presolve time: 125.48s
Presolved: 401 rows, 1570303 columns, 25982835 nonzeros
Variable types: 0 continuous, 1570303 integer (1570303 binary)
Found heuristic solution: objective 758485.00000

Root simplex log...

Iteration    Objective       Primal Inf.    Dual Inf.      Time
       0    0.0000000e+00   2.020000e+02   0.000000e+00    147s

Starting sifting (using dual simplex for sub-problems)...

    Iter     Pivots    Primal Obj      Dual Obj        Time
       0          0     infinity      0.0000000e+00    147s
       1       2562   2.0200000e+08   2.0095116e+02    147s
       2       7371   1.9730294e+08   2.0771904e+03    148s
       3      10164   1.8051584e+08   2.8375466e+03    149s
       4      22574   1.4756309e+08   4.4883482e+03    151s
       5      24390   1.4754306e+08   5.5443386e+03    151s
       6      27981   1.4683459e+08   5.7503179e+03    152s
       7      33772   1.4297593e+08   5.9478866e+03    153s
       8      38865   1.3869681e+08   6.0447616e+03    154s
       9      43334   1.3733907e+08   6.1633286e+03    155s
      10      48415   1.2732599e+08   6.4063364e+03    156s
      11      52993   1.1902983e+08   6.6411857e+03    157s
      12      62929   1.0837864e+08   6.7299132e+03    159s
      13      68568   1.0498477e+08   6.9392541e+03    160s
      14      74386   1.0161618e+08   7.0450757e+03    162s
      15      78624   1.0060250e+08   7.4228488e+03    163s
      16      84486   9.5190786e+07   7.7877058e+03    165s
      17      92668   8.8330636e+07   8.0211880e+03    168s
      18      99648   8.3757453e+07   8.2538252e+03    170s
      19     106529   7.1814111e+07   8.4978213e+03    172s
      20     114870   6.8984044e+07   8.6970597e+03    174s
      21     120620   6.7194107e+07   9.0641484e+03    177s
      22     127193   6.3514478e+07   9.3628577e+03    179s
      23     131825   6.2103669e+07   9.4771778e+03    181s
      24     138301   5.9635723e+07   9.8477834e+03    184s
      25     147257   5.8525741e+07   1.0159938e+04    188s
      26     159181   5.4598300e+07   1.0246240e+04    193s
      27     169561   5.2195031e+07   1.0599013e+04    198s
      28     177884   4.7317229e+07   1.1007742e+04    202s
      29     189933   4.0147886e+07   1.1529399e+04    208s
      30     198640   2.6233930e+07   1.2338490e+04    212s
      31     210295   1.3974196e+07   1.2562122e+04    218s
      32     219466   1.1078462e+07   1.3175708e+04    222s
      33     232521   4.5393493e+06   1.3234689e+04    229s
      34     240998   9.0247217e+04  -6.5611351e+04    233s
      35     245893   8.0395193e+04  -5.8000485e+04    236s
      36     250592   7.7967893e+04  -4.7066555e+04    240s
      37     255399   7.2234611e+04  -3.6844780e+04    243s
      38     261418   6.7384440e+04  -2.6187665e+04    246s
      39     270208   6.3628659e+04  -6.4152232e+03    253s
      40     279894   5.8173353e+04   7.5323736e+03    261s
      41     288672   5.6324111e+04   2.3542599e+04    269s
      42     295212   5.5191680e+04   3.3223126e+04    274s
      43     303100   5.4590148e+04   3.8607253e+04    282s
      44     310181   5.4319021e+04   4.4774200e+04    289s
      45     316851   5.4151991e+04   5.2024019e+04    296s

Sifting complete

  321574    5.4724603e+04   0.000000e+00   0.000000e+00    302s

Root relaxation: objective 5.472460e+04, 321574 iterations, 157.70 seconds (231.29 work units)

    Nodes    |    Current Node    |     Objective Bounds      |     Work
 Expl Unexpl |  Obj  Depth IntInf | Incumbent    BestBd   Gap | It/Node Time

     0     0 54724.6034    0  241 758485.000 54724.6034  92.8%     -  320s
H    0     0                    237173.00000 54724.6034  76.9%     -  417s
     0     0 54941.2459    0  361 237173.000 54941.2459  76.8%     - 1397s
H    0     0                    171284.00000 54941.2459  67.9%     - 2252s
     0     0          -    0      171284.000 54941.2459  67.9%     - 2700s

Cutting planes:
  Clique: 119
  Zero half: 2
  RLT: 1

Explored 1 nodes (327756 simplex iterations) in 2701.30 seconds (1962.71 work units)
Thread count was 8 (of 8 available processors)

Solution count 3: 171284 237173 758485 

Time limit reached
Best objective 1.712840000000e+05, best bound 5.494200000000e+04, gap 67.9234%

User-callback calls 60692, time in user-callback 0.22 sec

=========================

OUTPUT STATISTICS
Time since start: 10875.302415847778
SetUpTime: 8099.310853004456
Objective value: 171284.0
Gap: 0.679234487751337
Number of variables: 1570519
MIP relative gap: 0.679234487751337
